objective value:                                  639
t_p_0.1                                             1 	(obj:0)
t_p_0.2                                             1 	(obj:0)
t_p_0.3                                             1 	(obj:0)
t_p_0.7                                             1 	(obj:0)
t_p_0.9                                             1 	(obj:0)
t_p_0.14                                            1 	(obj:0)
t_p_0.15                                            1 	(obj:0)
t_p_0.20                                            1 	(obj:0)
t_p_0.23                                            1 	(obj:0)
t_p_0.25                                            1 	(obj:0)
t_p_0.28                                            1 	(obj:0)
t_p_1.2                                             1 	(obj:0)
t_p_1.3                                             1 	(obj:0)
t_p_1.5                                             1 	(obj:0)
t_p_1.6                                             1 	(obj:0)
t_p_1.7                                             1 	(obj:0)
t_p_1.8                                             1 	(obj:0)
t_p_1.9                                             1 	(obj:0)
t_p_1.12                                            1 	(obj:0)
t_p_1.14                                            1 	(obj:0)
t_p_1.15                                            1 	(obj:0)
t_p_1.17                                            1 	(obj:0)
t_p_1.20                                            1 	(obj:0)
t_p_1.23                                            1 	(obj:0)
t_p_1.24                                            1 	(obj:0)
t_p_1.29                                            1 	(obj:0)
t_p_2.1                                             1 	(obj:0)
t_p_2.3                                             1 	(obj:0)
t_p_2.5                                             1 	(obj:0)
t_p_2.7                                             1 	(obj:0)
t_p_2.9                                             1 	(obj:0)
t_p_2.12                                            1 	(obj:0)
t_p_2.14                                            1 	(obj:0)
t_p_2.15                                            1 	(obj:0)
t_p_2.20                                            1 	(obj:0)
t_p_2.23                                            1 	(obj:0)
t_p_2.24                                            1 	(obj:0)
t_p_2.28                                            1 	(obj:0)
t_p_2.29                                            1 	(obj:0)
t_p_3.5                                             1 	(obj:0)
t_p_3.6                                             1 	(obj:0)
t_p_3.7                                             1 	(obj:0)
t_p_3.8                                             1 	(obj:0)
t_p_3.9                                             1 	(obj:0)
t_p_3.12                                            1 	(obj:0)
t_p_3.14                                            1 	(obj:0)
t_p_3.15                                            1 	(obj:0)
t_p_3.20                                            1 	(obj:0)
t_p_3.23                                            1 	(obj:0)
t_p_3.24                                            1 	(obj:0)
t_p_3.28                                            1 	(obj:0)
t_p_3.29                                            1 	(obj:0)
t_p_4.6                                             1 	(obj:0)
t_p_4.7                                             1 	(obj:0)
t_p_4.8                                             1 	(obj:0)
t_p_4.9                                             1 	(obj:0)
t_p_4.14                                            1 	(obj:0)
t_p_4.15                                            1 	(obj:0)
t_p_4.20                                            1 	(obj:0)
t_p_4.23                                            1 	(obj:0)
t_p_4.29                                            1 	(obj:0)
t_p_5.1                                             1 	(obj:0)
t_p_5.2                                             1 	(obj:0)
t_p_5.3                                             1 	(obj:0)
t_p_5.4                                             1 	(obj:0)
t_p_5.7                                             1 	(obj:0)
t_p_5.9                                             1 	(obj:0)
t_p_5.15                                            1 	(obj:0)
t_p_5.19                                            1 	(obj:0)
t_p_5.21                                            1 	(obj:0)
t_p_5.22                                            1 	(obj:0)
t_p_5.23                                            1 	(obj:0)
t_p_5.25                                            1 	(obj:0)
t_p_5.26                                            1 	(obj:0)
t_p_6.1                                             1 	(obj:0)
t_p_6.3                                             1 	(obj:0)
t_p_6.4                                             1 	(obj:0)
t_p_6.8                                             1 	(obj:0)
t_p_6.9                                             1 	(obj:0)
t_p_6.15                                            1 	(obj:0)
t_p_6.19                                            1 	(obj:0)
t_p_6.20                                            1 	(obj:0)
t_p_6.21                                            1 	(obj:0)
t_p_6.23                                            1 	(obj:0)
t_p_6.25                                            1 	(obj:0)
t_p_6.26                                            1 	(obj:0)
t_p_7.0                                             1 	(obj:0)
t_p_7.1                                             1 	(obj:0)
t_p_7.2                                             1 	(obj:0)
t_p_7.3                                             1 	(obj:0)
t_p_7.4                                             1 	(obj:0)
t_p_7.5                                             1 	(obj:0)
t_p_7.6                                             1 	(obj:0)
t_p_7.8                                             1 	(obj:0)
t_p_7.10                                            1 	(obj:0)
t_p_7.11                                            1 	(obj:0)
t_p_7.13                                            1 	(obj:0)
t_p_7.18                                            1 	(obj:0)
t_p_7.19                                            1 	(obj:0)
t_p_7.21                                            1 	(obj:0)
t_p_7.22                                            1 	(obj:0)
t_p_7.23                                            1 	(obj:0)
t_p_7.24                                            1 	(obj:0)
t_p_7.25                                            1 	(obj:0)
t_p_7.26                                            1 	(obj:0)
t_p_7.27                                            1 	(obj:0)
t_p_7.29                                            1 	(obj:0)
t_p_8.1                                             1 	(obj:0)
t_p_8.3                                             1 	(obj:0)
t_p_8.4                                             1 	(obj:0)
t_p_8.9                                             1 	(obj:0)
t_p_8.15                                            1 	(obj:0)
t_p_8.19                                            1 	(obj:0)
t_p_8.21                                            1 	(obj:0)
t_p_8.22                                            1 	(obj:0)
t_p_8.23                                            1 	(obj:0)
t_p_8.25                                            1 	(obj:0)
t_p_8.26                                            1 	(obj:0)
t_p_9.0                                             1 	(obj:0)
t_p_9.1                                             1 	(obj:0)
t_p_9.2                                             1 	(obj:0)
t_p_9.3                                             1 	(obj:0)
t_p_9.4                                             1 	(obj:0)
t_p_9.5                                             1 	(obj:0)
t_p_9.6                                             1 	(obj:0)
t_p_9.8                                             1 	(obj:0)
t_p_9.10                                            1 	(obj:0)
t_p_9.11                                            1 	(obj:0)
t_p_9.13                                            1 	(obj:0)
t_p_9.17                                            1 	(obj:0)
t_p_9.18                                            1 	(obj:0)
t_p_9.19                                            1 	(obj:0)
t_p_9.21                                            1 	(obj:0)
t_p_9.22                                            1 	(obj:0)
t_p_9.23                                            1 	(obj:0)
t_p_9.24                                            1 	(obj:0)
t_p_9.25                                            1 	(obj:0)
t_p_9.26                                            1 	(obj:0)
t_p_9.27                                            1 	(obj:0)
t_p_9.29                                            1 	(obj:0)
t_p_10.0                                            1 	(obj:0)
t_p_10.1                                            1 	(obj:0)
t_p_10.2                                            1 	(obj:0)
t_p_10.3                                            1 	(obj:0)
t_p_10.4                                            1 	(obj:0)
t_p_10.5                                            1 	(obj:0)
t_p_10.6                                            1 	(obj:0)
t_p_10.8                                            1 	(obj:0)
t_p_10.11                                           1 	(obj:0)
t_p_10.12                                           1 	(obj:0)
t_p_10.19                                           1 	(obj:0)
t_p_10.21                                           1 	(obj:0)
t_p_10.22                                           1 	(obj:0)
t_p_10.25                                           1 	(obj:0)
t_p_10.26                                           1 	(obj:0)
t_p_10.28                                           1 	(obj:0)
t_p_11.0                                            1 	(obj:0)
t_p_11.1                                            1 	(obj:0)
t_p_11.2                                            1 	(obj:0)
t_p_11.3                                            1 	(obj:0)
t_p_11.4                                            1 	(obj:0)
t_p_11.5                                            1 	(obj:0)
t_p_11.6                                            1 	(obj:0)
t_p_11.8                                            1 	(obj:0)
t_p_11.12                                           1 	(obj:0)
t_p_11.17                                           1 	(obj:0)
t_p_11.21                                           1 	(obj:0)
t_p_11.22                                           1 	(obj:0)
t_p_11.25                                           1 	(obj:0)
t_p_11.28                                           1 	(obj:0)
t_p_12.0                                            1 	(obj:0)
t_p_12.1                                            1 	(obj:0)
t_p_12.2                                            1 	(obj:0)
t_p_12.3                                            1 	(obj:0)
t_p_12.4                                            1 	(obj:0)
t_p_12.5                                            1 	(obj:0)
t_p_12.6                                            1 	(obj:0)
t_p_12.7                                            1 	(obj:0)
t_p_12.8                                            1 	(obj:0)
t_p_12.9                                            1 	(obj:0)
t_p_12.10                                           1 	(obj:0)
t_p_12.11                                           1 	(obj:0)
t_p_12.13                                           1 	(obj:0)
t_p_12.16                                           1 	(obj:0)
t_p_12.18                                           1 	(obj:0)
t_p_12.19                                           1 	(obj:0)
t_p_12.21                                           1 	(obj:0)
t_p_12.22                                           1 	(obj:0)
t_p_12.26                                           1 	(obj:0)
t_p_12.29                                           1 	(obj:0)
t_p_13.0                                            1 	(obj:0)
t_p_13.1                                            1 	(obj:0)
t_p_13.2                                            1 	(obj:0)
t_p_13.3                                            1 	(obj:0)
t_p_13.4                                            1 	(obj:0)
t_p_13.5                                            1 	(obj:0)
t_p_13.6                                            1 	(obj:0)
t_p_13.8                                            1 	(obj:0)
t_p_13.14                                           1 	(obj:0)
t_p_13.15                                           1 	(obj:0)
t_p_13.17                                           1 	(obj:0)
t_p_13.18                                           1 	(obj:0)
t_p_13.19                                           1 	(obj:0)
t_p_13.21                                           1 	(obj:0)
t_p_14.0                                            1 	(obj:0)
t_p_14.1                                            1 	(obj:0)
t_p_14.2                                            1 	(obj:0)
t_p_14.3                                            1 	(obj:0)
t_p_14.4                                            1 	(obj:0)
t_p_14.5                                            1 	(obj:0)
t_p_14.6                                            1 	(obj:0)
t_p_14.7                                            1 	(obj:0)
t_p_14.8                                            1 	(obj:0)
t_p_14.9                                            1 	(obj:0)
t_p_14.13                                           1 	(obj:0)
t_p_14.15                                           1 	(obj:0)
t_p_14.17                                           1 	(obj:0)
t_p_14.19                                           1 	(obj:0)
t_p_14.24                                           1 	(obj:0)
t_p_14.25                                           1 	(obj:0)
t_p_14.26                                           1 	(obj:0)
t_p_14.27                                           1 	(obj:0)
t_p_14.29                                           1 	(obj:0)
t_p_15.0                                            1 	(obj:0)
t_p_15.1                                            1 	(obj:0)
t_p_15.2                                            1 	(obj:0)
t_p_15.3                                            1 	(obj:0)
t_p_15.4                                            1 	(obj:0)
t_p_15.5                                            1 	(obj:0)
t_p_15.6                                            1 	(obj:0)
t_p_15.7                                            1 	(obj:0)
t_p_15.8                                            1 	(obj:0)
t_p_15.9                                            1 	(obj:0)
t_p_15.13                                           1 	(obj:0)
t_p_15.14                                           1 	(obj:0)
t_p_15.16                                           1 	(obj:0)
t_p_15.17                                           1 	(obj:0)
t_p_15.18                                           1 	(obj:0)
t_p_15.19                                           1 	(obj:0)
t_p_15.24                                           1 	(obj:0)
t_p_15.26                                           1 	(obj:0)
t_p_15.27                                           1 	(obj:0)
t_p_15.29                                           1 	(obj:0)
t_p_16.0                                            1 	(obj:0)
t_p_16.1                                            1 	(obj:0)
t_p_16.2                                            1 	(obj:0)
t_p_16.3                                            1 	(obj:0)
t_p_16.4                                            1 	(obj:0)
t_p_16.5                                            1 	(obj:0)
t_p_16.6                                            1 	(obj:0)
t_p_16.7                                            1 	(obj:0)
t_p_16.8                                            1 	(obj:0)
t_p_16.9                                            1 	(obj:0)
t_p_16.13                                           1 	(obj:0)
t_p_16.14                                           1 	(obj:0)
t_p_16.17                                           1 	(obj:0)
t_p_16.18                                           1 	(obj:0)
t_p_16.19                                           1 	(obj:0)
t_p_16.21                                           1 	(obj:0)
t_p_16.25                                           1 	(obj:0)
t_p_16.26                                           1 	(obj:0)
t_p_16.28                                           1 	(obj:0)
t_p_17.0                                            1 	(obj:0)
t_p_17.1                                            1 	(obj:0)
t_p_17.2                                            1 	(obj:0)
t_p_17.3                                            1 	(obj:0)
t_p_17.4                                            1 	(obj:0)
t_p_17.5                                            1 	(obj:0)
t_p_17.6                                            1 	(obj:0)
t_p_17.7                                            1 	(obj:0)
t_p_17.8                                            1 	(obj:0)
t_p_17.11                                           1 	(obj:0)
t_p_17.13                                           1 	(obj:0)
t_p_17.16                                           1 	(obj:0)
t_p_17.19                                           1 	(obj:0)
t_p_17.21                                           1 	(obj:0)
t_p_17.22                                           1 	(obj:0)
t_p_17.25                                           1 	(obj:0)
t_p_17.26                                           1 	(obj:0)
t_p_18.0                                            1 	(obj:0)
t_p_18.1                                            1 	(obj:0)
t_p_18.2                                            1 	(obj:0)
t_p_18.3                                            1 	(obj:0)
t_p_18.4                                            1 	(obj:0)
t_p_18.5                                            1 	(obj:0)
t_p_18.6                                            1 	(obj:0)
t_p_18.8                                            1 	(obj:0)
t_p_18.13                                           1 	(obj:0)
t_p_18.14                                           1 	(obj:0)
t_p_18.16                                           1 	(obj:0)
t_p_18.17                                           1 	(obj:0)
t_p_18.19                                           1 	(obj:0)
t_p_18.21                                           1 	(obj:0)
t_p_18.22                                           1 	(obj:0)
t_p_18.25                                           1 	(obj:0)
t_p_18.26                                           1 	(obj:0)
t_p_18.28                                           1 	(obj:0)
t_p_19.0                                            1 	(obj:0)
t_p_19.1                                            1 	(obj:0)
t_p_19.2                                            1 	(obj:0)
t_p_19.3                                            1 	(obj:0)
t_p_19.4                                            1 	(obj:0)
t_p_19.22                                           1 	(obj:0)
t_p_19.27                                           1 	(obj:0)
t_p_19.28                                           1 	(obj:0)
t_p_20.0                                            1 	(obj:0)
t_p_20.1                                            1 	(obj:0)
t_p_20.2                                            1 	(obj:0)
t_p_20.3                                            1 	(obj:0)
t_p_20.4                                            1 	(obj:0)
t_p_20.5                                            1 	(obj:0)
t_p_20.6                                            1 	(obj:0)
t_p_20.8                                            1 	(obj:0)
t_p_20.9                                            1 	(obj:0)
t_p_20.24                                           1 	(obj:0)
t_p_20.25                                           1 	(obj:0)
t_p_20.27                                           1 	(obj:0)
t_p_20.29                                           1 	(obj:0)
t_p_21.0                                            1 	(obj:0)
t_p_21.1                                            1 	(obj:0)
t_p_21.2                                            1 	(obj:0)
t_p_21.3                                            1 	(obj:0)
t_p_21.4                                            1 	(obj:0)
t_p_21.14                                           1 	(obj:0)
t_p_21.15                                           1 	(obj:0)
t_p_21.19                                           1 	(obj:0)
t_p_21.20                                           1 	(obj:0)
t_p_21.24                                           1 	(obj:0)
t_p_21.27                                           1 	(obj:0)
t_p_21.28                                           1 	(obj:0)
t_p_22.0                                            1 	(obj:0)
t_p_22.1                                            1 	(obj:0)
t_p_22.2                                            1 	(obj:0)
t_p_22.3                                            1 	(obj:0)
t_p_22.4                                            1 	(obj:0)
t_p_22.6                                            1 	(obj:0)
t_p_22.13                                           1 	(obj:0)
t_p_22.14                                           1 	(obj:0)
t_p_22.15                                           1 	(obj:0)
t_p_22.16                                           1 	(obj:0)
t_p_22.19                                           1 	(obj:0)
t_p_22.20                                           1 	(obj:0)
t_p_22.25                                           1 	(obj:0)
t_p_22.26                                           1 	(obj:0)
t_p_22.27                                           1 	(obj:0)
t_p_22.28                                           1 	(obj:0)
t_p_23.0                                            1 	(obj:0)
t_p_23.1                                            1 	(obj:0)
t_p_23.2                                            1 	(obj:0)
t_p_23.3                                            1 	(obj:0)
t_p_23.4                                            1 	(obj:0)
t_p_23.5                                            1 	(obj:0)
t_p_23.6                                            1 	(obj:0)
t_p_23.8                                            1 	(obj:0)
t_p_23.24                                           1 	(obj:0)
t_p_23.29                                           1 	(obj:0)
t_p_24.1                                            1 	(obj:0)
t_p_24.2                                            1 	(obj:0)
t_p_24.3                                            1 	(obj:0)
t_p_24.4                                            1 	(obj:0)
t_p_24.5                                            1 	(obj:0)
t_p_24.6                                            1 	(obj:0)
t_p_24.8                                            1 	(obj:0)
t_p_24.21                                           1 	(obj:0)
t_p_24.25                                           1 	(obj:0)
t_p_24.29                                           1 	(obj:0)
t_p_25.1                                            1 	(obj:0)
t_p_25.2                                            1 	(obj:0)
t_p_25.3                                            1 	(obj:0)
t_p_25.4                                            1 	(obj:0)
t_p_25.23                                           1 	(obj:0)
t_p_25.27                                           1 	(obj:0)
t_p_25.28                                           1 	(obj:0)
t_p_25.29                                           1 	(obj:0)
t_p_26.0                                            1 	(obj:0)
t_p_26.1                                            1 	(obj:0)
t_p_26.2                                            1 	(obj:0)
t_p_26.3                                            1 	(obj:0)
t_p_26.4                                            1 	(obj:0)
t_p_26.20                                           1 	(obj:0)
t_p_26.23                                           1 	(obj:0)
t_p_26.24                                           1 	(obj:0)
t_p_26.25                                           1 	(obj:0)
t_p_27.0                                            1 	(obj:0)
t_p_27.1                                            1 	(obj:0)
t_p_27.2                                            1 	(obj:0)
t_p_27.3                                            1 	(obj:0)
t_p_27.4                                            1 	(obj:0)
t_p_27.5                                            1 	(obj:0)
t_p_27.6                                            1 	(obj:0)
t_p_27.8                                            1 	(obj:0)
t_p_27.19                                           1 	(obj:0)
t_p_27.21                                           1 	(obj:0)
t_p_27.22                                           1 	(obj:0)
t_p_27.23                                           1 	(obj:0)
t_p_27.24                                           1 	(obj:0)
t_p_27.25                                           1 	(obj:0)
t_p_27.28                                           1 	(obj:0)
t_p_28.0                                            1 	(obj:0)
t_p_28.1                                            1 	(obj:0)
t_p_28.2                                            1 	(obj:0)
t_p_28.3                                            1 	(obj:0)
t_p_28.4                                            1 	(obj:0)
t_p_28.5                                            1 	(obj:0)
t_p_28.6                                            1 	(obj:0)
t_p_28.7                                            1 	(obj:0)
t_p_28.8                                            1 	(obj:0)
t_p_28.9                                            1 	(obj:0)
t_p_28.10                                           1 	(obj:0)
t_p_28.11                                           1 	(obj:0)
t_p_28.13                                           1 	(obj:0)
t_p_28.14                                           1 	(obj:0)
t_p_28.15                                           1 	(obj:0)
t_p_28.16                                           1 	(obj:0)
t_p_28.17                                           1 	(obj:0)
t_p_28.18                                           1 	(obj:0)
t_p_28.19                                           1 	(obj:0)
t_p_28.20                                           1 	(obj:0)
t_p_28.21                                           1 	(obj:0)
t_p_28.22                                           1 	(obj:0)
t_p_28.23                                           1 	(obj:0)
t_p_28.24                                           1 	(obj:0)
t_p_28.25                                           1 	(obj:0)
t_p_28.26                                           1 	(obj:0)
t_p_28.27                                           1 	(obj:0)
t_p_28.29                                           1 	(obj:0)
t_p_29.1                                            1 	(obj:0)
t_p_29.2                                            1 	(obj:0)
t_p_29.3                                            1 	(obj:0)
t_p_29.4                                            1 	(obj:0)
t_p_29.5                                            1 	(obj:0)
t_p_29.6                                            1 	(obj:0)
t_p_29.8                                            1 	(obj:0)
t_p_29.24                                           1 	(obj:0)
t_p_29.25                                           1 	(obj:0)
t_z_sb0_0                                           1 	(obj:0)
t_z_sb3_3                                           1 	(obj:0)
t_z_sb5_5                                           1 	(obj:0)
t_z_sb8_8                                           1 	(obj:0)
t_z_sb10_10                                         1 	(obj:0)
t_z_sb11_11                                         1 	(obj:0)
t_z_sb12_12                                         1 	(obj:0)
t_z_sb15_15                                         1 	(obj:0)
t_z_sb19_19                                         1 	(obj:0)
t_z_sb20_20                                         1 	(obj:0)
t_z_sb21_21                                         1 	(obj:0)
t_z_sb22_22                                         1 	(obj:0)
t_z_sb23_23                                         1 	(obj:0)
t_z_sb25_25                                         1 	(obj:0)
t_z_sb27_27                                         1 	(obj:0)
t_y_sb0_0                                         158 	(obj:0)
t_y_sb1_1                                         460 	(obj:0)
t_y_sb2_2                                         362 	(obj:0)
t_y_sb3_3                                         505 	(obj:0)
t_y_sb4_4                                         551 	(obj:0)
t_y_sb5_5                                         158 	(obj:0)
t_y_sb6_6                                         158 	(obj:0)
t_y_sb8_8                                         236 	(obj:0)
t_y_sb10_10                                       125 	(obj:0)
t_y_sb11_11                                       346 	(obj:0)
t_y_sb13_13                                       472 	(obj:0)
t_y_sb14_14                                        39 	(obj:0)
t_y_sb16_16                                       375 	(obj:0)
t_y_sb17_17                                       152 	(obj:0)
t_y_sb18_18                                       125 	(obj:0)
t_y_sb19_19                                       536 	(obj:0)
t_y_sb21_21                                       541 	(obj:0)
t_y_sb22_22                                       420 	(obj:0)
t_y_sb23_23                                       108 	(obj:0)
t_y_sb24_24                                       208 	(obj:0)
t_y_sb25_25                                       521 	(obj:0)
t_y_sb26_26                                       509 	(obj:0)
t_y_sb27_27                                       383 	(obj:0)
t_y_sb29_29                                       158 	(obj:0)
t_H                                               639 	(obj:1)
t_x_sb0_0                                         374 	(obj:0)
t_x_sb1_1                                         522 	(obj:0)
t_x_sb2_2                                         509 	(obj:0)
t_x_sb3_3                                         488 	(obj:0)
t_x_sb4_4                                         566 	(obj:0)
t_x_sb5_5                                         529 	(obj:0)
t_x_sb6_6                                         583 	(obj:0)
t_x_sb7_7                                         279 	(obj:0)
t_x_sb8_8                                         581 	(obj:0)
t_x_sb9_9                                         514 	(obj:0)
t_x_sb13_13                                       195 	(obj:0)
t_x_sb14_14                                       195 	(obj:0)
t_x_sb15_15                                       166 	(obj:0)
t_x_sb16_16                                       126 	(obj:0)
t_x_sb17_17                                       166 	(obj:0)
t_x_sb18_18                                        52 	(obj:0)
t_x_sb19_19                                        52 	(obj:0)
t_x_sb20_20                                       387 	(obj:0)
t_x_sb22_22                                        45 	(obj:0)
t_x_sb23_23                                       515 	(obj:0)
t_x_sb24_24                                       480 	(obj:0)
t_x_sb25_25                                       356 	(obj:0)
t_x_sb26_26                                       257 	(obj:0)
t_x_sb27_27                                       341 	(obj:0)
t_x_sb28_28                                        95 	(obj:0)
t_x_sb29_29                                       480 	(obj:0)
